MARKOV
228
 2 2 2 2 2 2 2 2 2 2 2 2 2 2 2 2 2 2 2 2 2 2 2 2 2 2 2 2 2 2 2 2 2 2 2 2 2 2 2 2 2 2 2 2 2 2 2 2 2 2 2 2 2 2 2 2 2 2 2 2 2 2 2 2 2 2 2 2 2 2 2 2 2 2 2 2 2 2 2 2 2 2 2 2 2 2 2 2 2 2 2 2 2 2 2 2 2 2 2 2 2 2 2 2 2 2 2 2 2 2 2 2 2 2 2 2 2 2 2 2 2 2 2 2 2 2 2 2 2 2 2 2 2 2 2 2 2 2 2 2 2 2 2 2 2 2 2 2 2 2 2 2 2 2 2 2 2 2 2 2 2 2 2 2 2 2 2 2 2 2 2 2 2 2 2 2 2 2 2 2 2 2 2 2 2 2 2 2 2 2 2 2 2 2 2 2 2 2 2 2 2 2 2 2 2 2 2 2 2 2 2 2 2 2 2 2 2 2 2 2 2 2 2 2 2 2 2 2
840
1	0 
1	1 
1	2 
1	3 
1	4 
1	5 
1	6 
1	7 
1	8 
1	9 
1	10 
1	11 
1	12 
1	13 
1	14 
1	15 
1	16 
1	17 
1	18 
1	19 
1	20 
1	21 
1	22 
1	23 
1	24 
1	25 
1	26 
1	27 
1	28 
1	29 
1	30 
1	31 
1	32 
1	33 
1	34 
1	35 
1	36 
1	37 
1	38 
1	39 
1	40 
1	41 
1	42 
1	43 
1	44 
1	45 
1	46 
1	47 
1	48 
1	49 
1	50 
1	51 
1	52 
1	53 
1	54 
1	55 
1	56 
1	57 
1	58 
1	59 
1	60 
1	61 
1	62 
1	63 
1	64 
1	65 
1	66 
1	67 
1	68 
1	69 
1	70 
1	71 
1	72 
1	73 
1	74 
1	75 
1	76 
1	77 
1	78 
1	79 
1	80 
1	81 
1	82 
1	83 
1	84 
1	85 
1	86 
1	87 
1	88 
1	89 
1	90 
1	91 
1	92 
1	93 
1	94 
1	95 
1	96 
1	97 
1	98 
1	99 
1	100 
1	101 
1	102 
1	103 
1	104 
1	105 
1	106 
1	107 
1	108 
1	109 
1	110 
1	111 
1	112 
1	113 
1	114 
1	115 
1	116 
1	117 
1	118 
1	119 
1	120 
1	121 
1	122 
1	123 
1	124 
1	125 
1	126 
1	127 
1	128 
1	129 
1	130 
1	131 
1	132 
1	133 
1	134 
1	135 
1	136 
1	137 
1	138 
1	139 
1	140 
1	141 
1	142 
1	143 
1	144 
1	145 
1	146 
1	147 
1	148 
1	149 
1	150 
1	151 
1	152 
1	153 
1	154 
1	155 
1	156 
1	157 
1	158 
1	159 
1	160 
1	161 
1	162 
1	163 
1	164 
1	165 
1	166 
1	167 
1	168 
1	169 
1	170 
1	171 
1	172 
1	173 
1	174 
1	175 
1	176 
1	177 
1	178 
1	179 
1	180 
1	181 
1	182 
1	183 
1	184 
1	185 
1	186 
1	187 
1	188 
1	189 
1	190 
1	191 
1	192 
1	193 
1	194 
1	195 
1	196 
1	197 
1	198 
1	199 
1	200 
1	201 
1	202 
1	203 
1	204 
1	205 
1	206 
1	207 
1	208 
1	209 
1	210 
1	211 
1	212 
1	213 
1	214 
1	215 
1	216 
1	217 
1	218 
1	219 
1	220 
1	221 
1	222 
1	223 
1	224 
1	225 
1	226 
1	227 
2	1 4 
2	1 105 
2	1 108 
2	1 143 
2	1 208 
2	1 210 
2	2 3 
2	2 4 
2	2 139 
2	2 190 
2	2 191 
2	3 139 
2	3 140 
2	3 189 
2	3 190 
2	3 193 
2	3 218 
2	4 139 
2	4 143 
2	5 9 
2	5 91 
2	5 177 
2	5 178 
2	5 180 
2	5 195 
2	6 7 
2	6 8 
2	6 88 
2	6 89 
2	6 196 
2	6 197 
2	7 19 
2	7 89 
2	7 90 
2	7 158 
2	7 196 
2	8 9 
2	8 87 
2	8 88 
2	8 197 
2	9 87 
2	9 91 
2	9 195 
2	9 197 
2	10 11 
2	10 12 
2	10 13 
2	10 15 
2	11 13 
2	11 76 
2	11 204 
2	11 205 
2	12 15 
2	12 17 
2	13 15 
2	13 16 
2	13 18 
2	13 76 
2	14 15 
2	14 16 
2	14 59 
2	14 61 
2	14 171 
2	15 16 
2	15 17 
2	15 61 
2	16 18 
2	16 19 
2	16 171 
2	17 60 
2	17 61 
2	18 19 
2	18 76 
2	18 90 
2	19 90 
2	19 158 
2	19 167 
2	19 171 
2	20 21 
2	20 59 
2	20 168 
2	20 171 
2	21 110 
2	21 168 
2	21 170 
2	22 23 
2	22 54 
2	22 57 
2	22 174 
2	22 219 
2	23 25 
2	23 27 
2	23 54 
2	23 55 
2	23 174 
2	23 175 
2	24 26 
2	24 27 
2	24 56 
2	24 58 
2	24 121 
2	24 122 
2	25 26 
2	25 27 
2	25 173 
2	25 175 
2	26 27 
2	26 122 
2	26 172 
2	26 173 
2	27 55 
2	27 58 
2	28 29 
2	28 44 
2	28 49 
2	28 116 
2	28 151 
2	28 152 
2	29 117 
2	29 152 
2	30 32 
2	30 84 
2	31 34 
2	31 78 
2	31 206 
2	32 33 
2	32 73 
2	32 84 
2	33 34 
2	33 73 
2	33 75 
2	34 75 
2	34 78 
2	35 36 
2	35 37 
2	35 115 
2	36 37 
2	36 62 
2	36 63 
2	36 130 
2	36 138 
2	37 115 
2	37 130 
2	37 131 
2	37 132 
2	38 41 
2	38 180 
2	38 183 
2	38 195 
2	38 227 
2	39 40 
2	39 42 
2	39 182 
2	39 185 
2	39 196 
2	39 197 
2	40 158 
2	40 160 
2	40 182 
2	40 196 
2	41 42 
2	41 183 
2	41 184 
2	41 195 
2	41 197 
2	42 184 
2	42 185 
2	42 197 
2	43 46 
2	43 48 
2	43 49 
2	43 53 
2	43 107 
2	43 109 
2	44 45 
2	44 48 
2	44 49 
2	44 116 
2	44 135 
2	44 136 
2	45 47 
2	45 48 
2	45 51 
2	45 136 
2	46 49 
2	46 109 
2	46 150 
2	46 151 
2	47 50 
2	47 51 
2	47 52 
2	47 134 
2	47 136 
2	48 49 
2	48 51 
2	48 53 
2	49 151 
2	50 51 
2	50 52 
2	50 148 
2	50 203 
2	51 53 
2	51 186 
2	51 203 
2	52 95 
2	52 134 
2	52 137 
2	52 174 
2	52 220 
2	53 107 
2	53 186 
2	53 209 
2	54 55 
2	54 57 
2	54 98 
2	54 99 
2	54 102 
2	55 58 
2	55 98 
2	56 58 
2	56 100 
2	56 101 
2	56 120 
2	56 121 
2	57 102 
2	57 222 
2	57 223 
2	58 98 
2	58 101 
2	59 60 
2	59 61 
2	59 171 
2	60 61 
2	62 63 
2	62 103 
2	62 104 
2	62 133 
2	62 138 
2	63 103 
2	64 67 
2	64 81 
2	64 127 
2	65 66 
2	65 68 
2	65 70 
2	66 67 
2	66 68 
2	66 70 
2	66 119 
2	66 124 
2	67 68 
2	67 123 
2	67 124 
2	67 127 
2	69 71 
2	69 72 
2	69 194 
2	70 71 
2	70 119 
2	70 213 
2	71 72 
2	71 213 
2	71 215 
2	72 194 
2	72 215 
2	72 217 
2	72 218 
2	73 75 
2	73 79 
2	73 84 
2	73 176 
2	74 76 
2	74 77 
2	74 88 
2	74 89 
2	74 204 
2	75 78 
2	75 176 
2	75 178 
2	76 89 
2	76 90 
2	76 204 
2	77 78 
2	77 87 
2	77 88 
2	77 206 
2	78 87 
2	78 91 
2	78 178 
2	78 206 
2	79 83 
2	79 84 
2	79 85 
2	79 86 
2	79 176 
2	79 179 
2	80 82 
2	80 83 
2	80 85 
2	80 224 
2	81 82 
2	81 127 
2	81 225 
2	82 224 
2	82 225 
2	83 85 
2	83 179 
2	83 181 
2	83 224 
2	84 86 
2	85 86 
2	87 88 
2	87 91 
2	88 89 
2	89 90 
2	91 178 
2	92 93 
2	92 111 
2	92 112 
2	92 114 
2	92 163 
2	92 164 
2	92 165 
2	93 111 
2	93 113 
2	94 96 
2	94 97 
2	94 145 
2	94 146 
2	94 147 
2	94 173 
2	95 96 
2	95 148 
2	95 149 
2	95 174 
2	96 145 
2	96 149 
2	96 174 
2	96 175 
2	97 146 
2	97 172 
2	97 214 
2	97 215 
2	97 216 
2	98 99 
2	98 101 
2	98 156 
2	99 102 
2	99 154 
2	99 156 
2	99 157 
2	100 101 
2	100 120 
2	100 125 
2	100 153 
2	100 155 
2	101 153 
2	101 156 
2	102 157 
2	102 161 
2	102 221 
2	103 104 
2	103 117 
2	104 116 
2	104 117 
2	104 133 
2	104 135 
2	105 106 
2	105 108 
2	105 207 
2	105 211 
2	106 107 
2	106 209 
2	106 211 
2	107 109 
2	107 209 
2	108 210 
2	109 150 
2	110 111 
2	110 112 
2	110 170 
2	111 112 
2	112 165 
2	112 169 
2	112 170 
2	113 114 
2	113 115 
2	114 115 
2	114 132 
2	114 164 
2	115 132 
2	116 117 
2	116 135 
2	118 119 
2	118 120 
2	118 121 
2	118 122 
2	118 123 
2	118 124 
2	119 122 
2	119 124 
2	119 213 
2	120 121 
2	120 123 
2	120 125 
2	120 126 
2	121 122 
2	122 172 
2	122 214 
2	123 124 
2	123 126 
2	123 127 
2	125 126 
2	125 155 
2	125 183 
2	125 226 
2	126 127 
2	126 225 
2	126 226 
2	127 225 
2	128 129 
2	128 131 
2	128 132 
2	128 164 
2	128 221 
2	128 222 
2	128 223 
2	129 130 
2	129 131 
2	129 137 
2	129 219 
2	129 223 
2	130 131 
2	130 137 
2	130 138 
2	131 132 
2	132 164 
2	133 134 
2	133 135 
2	133 136 
2	133 138 
2	134 136 
2	134 137 
2	134 138 
2	135 136 
2	137 138 
2	137 219 
2	137 220 
2	139 140 
2	139 143 
2	140 141 
2	140 142 
2	140 143 
2	140 144 
2	140 218 
2	141 142 
2	141 144 
2	141 198 
2	141 199 
2	141 216 
2	142 216 
2	142 217 
2	142 218 
2	143 144 
2	143 208 
2	144 188 
2	144 198 
2	144 208 
2	144 212 
2	145 147 
2	145 149 
2	145 200 
2	145 202 
2	146 147 
2	146 199 
2	146 216 
2	147 199 
2	147 200 
2	148 149 
2	148 201 
2	148 203 
2	149 201 
2	149 202 
2	150 151 
2	150 152 
2	151 152 
2	153 155 
2	153 156 
2	153 184 
2	154 156 
2	154 157 
2	154 182 
2	154 185 
2	155 183 
2	156 184 
2	156 185 
2	157 161 
2	157 162 
2	157 182 
2	158 160 
2	158 167 
2	158 196 
2	159 160 
2	159 162 
2	159 166 
2	159 169 
2	159 182 
2	160 167 
2	160 169 
2	160 182 
2	161 162 
2	161 163 
2	161 221 
2	162 163 
2	162 166 
2	162 182 
2	163 164 
2	163 165 
2	163 166 
2	163 221 
2	164 221 
2	165 166 
2	165 169 
2	166 169 
2	167 168 
2	167 169 
2	167 171 
2	168 169 
2	168 170 
2	168 171 
2	169 170 
2	172 173 
2	172 214 
2	173 175 
2	174 175 
2	174 219 
2	174 220 
2	176 178 
2	176 179 
2	177 178 
2	177 179 
2	177 180 
2	177 181 
2	178 179 
2	179 181 
2	180 181 
2	180 195 
2	180 227 
2	181 224 
2	182 185 
2	183 184 
2	183 226 
2	183 227 
2	184 185 
2	186 187 
2	186 201 
2	186 203 
2	186 209 
2	186 211 
2	187 188 
2	187 201 
2	187 202 
2	187 207 
2	187 211 
2	188 198 
2	188 200 
2	188 202 
2	188 207 
2	188 212 
2	189 192 
2	189 193 
2	189 218 
2	190 191 
2	190 193 
2	192 194 
2	192 218 
2	194 218 
2	195 197 
2	196 197 
2	198 199 
2	198 200 
2	199 200 
2	199 216 
2	200 202 
2	201 202 
2	201 203 
2	204 205 
2	204 206 
2	207 210 
2	207 211 
2	207 212 
2	208 210 
2	208 212 
2	209 211 
2	210 212 
2	213 214 
2	213 215 
2	214 215 
2	215 216 
2	215 217 
2	216 217 
2	217 218 
2	219 220 
2	219 223 
2	221 222 
2	222 223 
2	224 225 
2	224 227 
2	225 226 
2	225 227 
2	226 227 
0	

2
 0.252912 1
2
 0.152975 1
2
 0.831374 1
2
 1 0.920729
2
 0.67025 1
2
 0.144735 1
2
 0.069287 1
2
 0.0723126 1
2
 0.0716678 1
2
 0.0894579 1
2
 0.257366 1
2
 0.677851 1
2
 0.243542 1
2
 0.26813 1
2
 1 0.667362
2
 0.814012 1
2
 1 0.980233
2
 1 0.559954
2
 0.179227 1
2
 0.13467 1
2
 0.14011 1
2
 0.293711 1
2
 0.0863811 1
2
 0.120252 1
2
 0.27761 1
2
 0.169292 1
2
 0.321466 1
2
 0.102977 1
2
 0.336413 1
2
 0.110674 1
2
 1 0.142648
2
 0.476482 1
2
 1 0.330292
2
 0.635002 1
2
 0.521097 1
2
 0.0506951 1
2
 0.553047 1
2
 0.0736815 1
2
 0.486052 1
2
 0.636832 1
2
 0.334157 1
2
 0.310387 1
2
 0.459174 1
2
 1 0.653511
2
 0.592621 1
2
 1 0.500713
2
 0.800976 1
2
 0.84894 1
2
 1 0.770475
2
 1 0.373903
2
 0.0542722 1
2
 0.166579 1
2
 0.0684867 1
2
 0.222558 1
2
 0.0863979 1
2
 0.0854209 1
2
 0.0809083 1
2
 0.0771157 1
2
 0.172341 1
2
 0.0815739 1
2
 0.306289 1
2
 0.157936 1
2
 0.144641 1
2
 0.0733449 1
2
 1 0.929582
2
 1 0.0797082
2
 1 0.463368
2
 1 0.594301
2
 1 0.260321
2
 1 0.140246
2
 1 0.636596
2
 1 0.919714
2
 1 0.512479
2
 0.346663 1
2
 0.399376 1
2
 0.266079 1
2
 0.251648 1
2
 0.580266 1
2
 0.344184 1
2
 1 0.328878
2
 1 0.847412
2
 1 0.494275
2
 1 0.489804
2
 0.983083 1
2
 1 0.0746556
2
 1 0.122225
2
 1 0.0689126
2
 0.507897 1
2
 0.0969099 1
2
 0.150748 1
2
 0.226247 1
2
 0.946716 1
2
 0.466911 1
2
 1 0.34535
2
 0.190818 1
2
 0.154249 1
2
 0.0356864 1
2
 0.0729865 1
2
 0.156732 1
2
 0.102801 1
2
 0.280726 1
2
 0.111249 1
2
 0.0982868 1
2
 0.113564 1
2
 0.0806253 1
2
 0.50388 1
2
 0.870394 1
2
 0.61121 1
2
 0.60559 1
2
 0.852944 1
2
 1 0.508906
2
 1 0.610493
2
 0.957654 1
2
 0.136954 1
2
 0.046847 1
2
 0.504214 1
2
 0.0770898 1
2
 0.0950663 1
2
 1 0.456495
2
 1 0.739294
2
 1 0.806733
2
 0.829011 1
2
 0.464531 1
2
 1 0.497949
2
 1 0.497684
2
 0.326652 1
2
 1 0.569761
2
 1 0.670953
2
 0.417267 1
2
 1 0.53189
2
 1 0.587466
2
 1 0.473351
2
 0.730172 1
2
 1 0.988305
2
 1 0.848298
2
 1 0.305921
2
 0.602081 1
2
 0.312867 1
2
 1 0.551484
2
 1 0.372834
2
 1 0.255938
2
 0.601061 1
2
 1 0.593975
2
 0.547276 1
2
 0.32717 1
2
 0.590265 1
2
 0.814994 1
2
 1 0.978485
2
 0.219209 1
2
 0.636235 1
2
 0.270876 1
2
 0.175443 1
2
 0.307499 1
2
 0.202586 1
2
 0.0186513 1
2
 0.0826253 1
2
 0.0365928 1
2
 0.0124025 1
2
 0.212755 1
2
 0.102167 1
2
 0.0901732 1
2
 0.129256 1
2
 0.167222 1
2
 0.34414 1
2
 0.82117 1
2
 1 0.221258
2
 0.413995 1
2
 1 0.552707
2
 0.674843 1
2
 1 0.278561
2
 0.137546 1
2
 1 0.413895
2
 0.155632 1
2
 0.304634 1
2
 0.0294037 1
2
 0.0502548 1
2
 0.346192 1
2
 0.411731 1
2
 0.0889698 1
2
 1 0.671075
2
 0.615069 1
2
 1 0.756468
2
 0.122088 1
2
 0.182009 1
2
 0.199197 1
2
 0.12804 1
2
 1 0.592415
2
 1 0.675673
2
 0.759098 1
2
 1 0.148826
2
 1 0.0754188
2
 1 0.123557
2
 1 0.0922485
2
 1 0.104334
2
 1 0.123878
2
 0.426392 1
2
 0.553105 1
2
 1 0.815516
2
 0.252159 1
2
 0.513792 1
2
 0.305235 1
2
 0.170615 1
2
 0.104597 1
2
 0.159841 1
2
 0.244897 1
2
 1 0.897372
2
 0.317915 1
2
 0.375879 1
2
 0.78855 1
2
 0.448936 1
2
 0.743622 1
2
 0.270648 1
2
 1 0.726003
2
 1 0.762049
2
 0.591175 1
2
 0.604568 1
2
 0.526365 1
2
 1 0.735564
2
 0.939806 1
2
 0.136013 1
2
 0.425575 1
2
 0.156963 1
2
 0.129623 1
2
 0.112142 1
2
 1 0.745727
2
 1 0.793254
2
 1 0.76092
2
 1 0.861638
4
 0.99971 0.273092 0.273092 1
4
 0.985055 0.263549 0.263549 1
4
 0.99127 0.267636 0.267636 1
4
 1 0.275085 0.275085 0.99956
4
 0.996683 0.273066 0.273066 1
4
 0.99177 0.269206 0.269206 1
4
 1 0.282956 0.282956 0.98143
4
 1 0.277465 0.277465 0.989953
4
 1 0.281557 0.281557 0.984576
4
 1 0.282953 0.282953 0.978513
4
 1 0.281012 0.281012 0.979887
4
 1 0.284957 0.284957 0.981155
4
 1 0.286728 0.286728 0.980769
4
 1 0.289667 0.289667 0.973582
4
 1 0.28637 0.28637 0.975113
4
 1 0.288014 0.288014 0.974347
4
 1 0.289788 0.289788 0.976429
4
 1 0.279427 0.279427 0.989675
4
 1 0.277295 0.277295 0.994354
4
 1 0.330719 0.330719 0.981992
4
 1 0.334533 0.334533 0.977756
4
 1 0.334832 0.334832 0.972499
4
 1 0.336532 0.336532 0.972936
4
 1 0.332399 0.332399 0.973919
4
 1 0.329948 0.329948 0.980284
4
 0.990924 0.316364 0.316364 1
4
 1 0.323121 0.323121 0.999909
4
 1 0.32565 0.32565 0.999067
4
 0.996447 0.322545 0.322545 1
4
 0.991536 0.315346 0.315346 1
4
 0.998745 0.320632 0.320632 1
4
 0.981399 0.309602 0.309602 1
4
 0.991981 0.319171 0.319171 1
4
 0.98759 0.315979 0.315979 1
4
 0.980463 0.307164 0.307164 1
4
 0.987092 0.312048 0.312048 1
4
 1 0.327026 0.327026 0.990743
4
 1 0.329473 0.329473 0.99041
4
 1 0.327607 0.327607 0.994366
4
 1 0.322964 0.322964 0.996545
4
 1 0.331464 0.331464 0.985971
4
 1 0.332796 0.332796 0.982048
4
 1 0.328235 0.328235 0.984587
4
 1 0.324915 0.324915 0.992079
4
 0.98261 0.32124 0.32124 1
4
 0.966901 0.310174 0.310174 1
4
 0.977273 0.316431 0.316431 1
4
 0.971637 0.312384 0.312384 1
4
 0.984322 0.32105 0.32105 1
4
 0.991868 0.326405 0.326405 1
4
 0.997733 0.3326 0.3326 1
4
 0.991255 0.328005 0.328005 1
4
 0.963 0.306025 0.306025 1
4
 0.956641 0.302019 0.302019 1
4
 0.97333 0.312199 0.312199 1
4
 0.975793 0.311963 0.311963 1
4
 0.980186 0.315261 0.315261 1
4
 0.98648 0.321518 0.321518 1
4
 0.965871 0.304894 0.304894 1
4
 0.968316 0.304664 0.304664 1
4
 0.957717 0.296322 0.296322 1
4
 0.960841 0.300387 0.300387 1
4
 0.964138 0.299891 0.299891 1
4
 0.970166 0.307974 0.307974 1
4
 0.961326 0.304172 0.304172 1
4
 0.962677 0.30365 0.30365 1
4
 0.977 0.310995 0.310995 1
4
 0.97448 0.306963 0.306963 1
4
 0.968425 0.302921 0.302921 1
4
 0.952621 0.297069 0.297069 1
4
 0.956319 0.299676 0.299676 1
4
 0.978867 0.310208 0.310208 1
4
 0.9877 0.32052 0.32052 1
4
 0.985042 0.316598 0.316598 1
4
 0.982502 0.312494 0.312494 1
4
 0.975411 0.303776 0.303776 1
4
 0.970821 0.300541 0.300541 1
4
 0.970276 0.302154 0.302154 1
4
 0.948566 0.28485 0.28485 1
4
 0.950645 0.289096 0.289096 1
4
 0.953961 0.288753 0.288753 1
4
 0.957019 0.292579 0.292579 1
4
 0.946014 0.279961 0.279961 1
4
 0.952677 0.286503 0.286503 1
4
 0.948354 0.282431 0.282431 1
4
 0.977391 0.280899 0.280899 1
4
 0.976677 0.282484 0.282484 1
4
 0.972463 0.279453 0.279453 1
4
 0.971373 0.275026 0.275026 1
4
 0.966584 0.273409 0.273409 1
4
 0.987542 0.287679 0.287679 1
4
 0.990485 0.290949 0.290949 1
4
 0.982011 0.2863 0.2863 1
4
 0.986377 0.289192 0.289192 1
4
 0.976678 0.278741 0.278741 1
4
 0.98284 0.283064 0.283064 1
4
 1 0.300228 0.300228 0.9933
4
 1 0.299893 0.299893 0.9971
4
 1 0.303933 0.303933 0.991628
4
 1 0.301747 0.301747 0.996485
4
 1 0.304915 0.304915 0.988016
4
 1 0.303364 0.303364 0.98735
4
 0.999143 0.295456 0.295456 1
4
 0.995335 0.294001 0.294001 1
4
 0.994107 0.290525 0.290525 1
4
 0.987653 0.286033 0.286033 1
4
 1 0.298182 0.298182 0.997884
4
 1 0.301633 0.301633 0.988126
4
 1 0.297717 0.297717 0.992853
4
 1 0.29502 0.29502 0.999116
4
 0.994162 0.295546 0.295546 1
4
 0.998918 0.299366 0.299366 1
4
 0.926155 0.233284 0.233284 1
4
 0.933883 0.238502 0.238502 1
4
 0.933779 0.237091 0.237091 1
4
 0.930533 0.237769 0.237769 1
4
 0.928759 0.233261 0.233261 1
4
 0.925064 0.231017 0.231017 1
4
 0.924024 0.233894 0.233894 1
4
 0.921745 0.229158 0.229158 1
4
 1 0.361039 0.361039 0.944145
4
 1 0.360865 0.360865 0.940969
4
 1 0.349155 0.349155 0.968251
4
 1 0.345055 0.345055 0.972938
4
 1 0.345126 0.345126 0.977154
4
 1 0.356827 0.356827 0.95197
4
 1 0.355705 0.355705 0.950421
4
 1 0.358393 0.358393 0.945099
4
 1 0.352965 0.352965 0.959968
4
 1 0.353979 0.353979 0.95411
4
 1 0.350894 0.350894 0.959645
4
 1 0.348787 0.348787 0.963965
4
 1 0.346726 0.346726 0.968958
4
 0.934561 0.254365 0.254365 1
4
 0.937241 0.257876 0.257876 1
4
 0.936241 0.258609 0.258609 1
4
 0.93782 0.256618 0.256618 1
4
 0.93556 0.251539 0.251539 1
4
 0.932465 0.249679 0.249679 1
4
 0.940141 0.256305 0.256305 1
4
 0.938875 0.253885 0.253885 1
4
 0.939506 0.260899 0.260899 1
4
 0.942837 0.259842 0.259842 1
4
 0.94432 0.262371 0.262371 1
4
 0.944478 0.264054 0.264054 1
4
 1 0.323367 0.323367 0.985028
4
 1 0.32875 0.32875 0.975396
4
 1 0.323068 0.323068 0.981549
4
 1 0.326326 0.326326 0.98177
4
 1 0.326853 0.326853 0.975725
4
 0.987648 0.308318 0.308318 1
4
 0.997009 0.314992 0.314992 1
4
 0.98726 0.306294 0.306294 1
4
 0.993098 0.31055 0.31055 1
4
 0.990035 0.311413 0.311413 1
4
 0.997232 0.316633 0.316633 1
4
 0.978704 0.303134 0.303134 1
4
 0.977551 0.30069 0.30069 1
4
 0.982559 0.302891 0.302891 1
4
 0.985321 0.307953 0.307953 1
4
 1 0.319625 0.319625 0.993862
4
 1 0.321259 0.321259 0.985913
4
 1 0.318609 0.318609 0.992022
4
 1 0.324499 0.324499 0.986135
4
 1 0.321218 0.321218 0.993639
4
 1 0.316696 0.316696 0.996488
4
 0.997737 0.313748 0.313748 1
4
 1 0.319289 0.319289 0.998113
4
 0.940938 0.238249 0.238249 1
4
 0.947033 0.243496 0.243496 1
4
 0.942101 0.240297 0.240297 1
4
 0.950336 0.244835 0.244835 1
4
 0.948364 0.241866 0.241866 1
4
 0.941414 0.237658 0.237658 1
4
 0.943741 0.245417 0.245417 1
4
 0.943106 0.243645 0.243645 1
4
 0.938194 0.240444 0.240444 1
4
 0.934932 0.241131 0.241131 1
4
 0.938404 0.243313 0.243313 1
4
 0.942046 0.245858 0.245858 1
4
 0.950975 0.251599 0.251599 1
4
 0.948576 0.247213 0.247213 1
4
 0.95306 0.251546 0.251546 1
4
 0.94751 0.249458 0.249458 1
4
 0.936931 0.236985 0.236985 1
4
 0.936248 0.234381 0.234381 1
4
 0.929282 0.230473 0.230473 1
4
 0.931894 0.233156 0.233156 1
4
 0.954773 0.256596 0.256596 1
4
 0.954828 0.254161 0.254161 1
4
 0.955792 0.258873 0.258873 1
4
 0.950227 0.254593 0.254593 1
4
 0.949267 0.252051 0.252051 1
4
 0.943 0.242204 0.242204 1
4
 0.952419 0.24973 0.24973 1
4
 0.951243 0.246777 0.246777 1
4
 0.933046 0.235161 0.235161 1
4
 0.956867 0.256543 0.256543 1
4
 0.957833 0.261299 0.261299 1
4
 0.961282 0.261668 0.261668 1
4
 0.960419 0.259296 0.259296 1
4
 0.95574 0.251103 0.251103 1
4
 0.960852 0.255533 0.255533 1
4
 0.960474 0.256835 0.256835 1
4
 0.964255 0.266661 0.266661 1
4
 0.953272 0.259259 0.259259 1
4
 0.954611 0.261853 0.261853 1
4
 0.964742 0.268226 0.268226 1
4
 0.958424 0.264396 0.264396 1
4
 0.95258 0.245125 0.245125 1
4
 0.959666 0.252511 0.252511 1
4
 0.957568 0.249634 0.249634 1
4
 0.985657 0.290823 0.290823 1
4
 0.977061 0.284826 0.284826 1
4
 0.98693 0.29395 0.29395 1
4
 0.982838 0.291201 0.291201 1
4
 0.978652 0.288211 0.288211 1
4
 0.994775 0.297557 0.297557 1
4
 0.991318 0.296919 0.296919 1
4
 1 0.303727 0.303727 0.99559
4
 1 0.307944 0.307944 0.990071
4
 1 0.305845 0.305845 0.994641
4
 1 0.309785 0.309785 0.985191
4
 1 0.306916 0.306916 0.987129
4
 0.97443 0.285118 0.285118 1
4
 0.968485 0.279287 0.279287 1
4
 0.967452 0.277293 0.277293 1
4
 0.996061 0.300756 0.300756 1
4
 1 0.303645 0.303645 0.999511
4
 0.950858 0.292546 0.292546 1
4
 0.954549 0.295113 0.295113 1
4
 0.957825 0.294626 0.294626 1
4
 0.953959 0.29656 0.29656 1
4
 0.932885 0.248115 0.248115 1
4
 0.931734 0.24559 0.24559 1
4
 0.934563 0.247257 0.247257 1
4
 0.938086 0.249611 0.249611 1
4
 0.939297 0.252294 0.252294 1
4
 0.928652 0.243774 0.243774 1
4
 1 0.32575 0.32575 0.955821
4
 1 0.330287 0.330287 0.95357
4
 1 0.326318 0.326318 0.959101
4
 1 0.316452 0.316452 0.960069
4
 1 0.318416 0.318416 0.95684
4
 1 0.313461 0.313461 0.960661
4
 1 0.320278 0.320278 0.959584
4
 1 0.31929 0.31929 0.958453
4
 1 0.314322 0.314322 0.962281
4
 1 0.31335 0.31335 0.966668
4
 1 0.316021 0.316021 0.964879
4
 1 0.322265 0.322265 0.956357
4
 1 0.320716 0.320716 0.963148
4
 1 0.318964 0.318964 0.962769
4
 1 0.323825 0.323825 0.960771
4
 1 0.306453 0.306453 0.962766
4
 1 0.303034 0.303034 0.965798
4
 1 0.302688 0.302688 0.963739
4
 1 0.309554 0.309554 0.963199
4
 1 0.310388 0.310388 0.967265
4
 1 0.30848 0.30848 0.967862
4
 1 0.304334 0.304334 0.966558
4
 1 0.3067 0.3067 0.968188
4
 1 0.304367 0.304367 0.970092
4
 1 0.300596 0.300596 0.967534
4
 1 0.300971 0.300971 0.973147
4
 1 0.298868 0.298868 0.973638
4
 1 0.297066 0.297066 0.972217
4
 1 0.349789 0.349789 0.958083
4
 1 0.351479 0.351479 0.951328
4
 1 0.355532 0.355532 0.947224
4
 1 0.350456 0.350456 0.95411
4
 0.99936 0.330989 0.330989 1
4
 1 0.335962 0.335962 0.9898
4
 1 0.331871 0.331871 0.994423
4
 1 0.329878 0.329878 0.9989
4
 1 0.335503 0.335503 0.994759
4
 1 0.344691 0.344691 0.968631
4
 1 0.347401 0.347401 0.959644
4
 1 0.343692 0.343692 0.965915
4
 0.995775 0.326143 0.326143 1
4
 0.991368 0.322881 0.322881 1
4
 0.999921 0.333086 0.333086 1
4
 1 0.340502 0.340502 0.978966
4
 1 0.336146 0.336146 0.984976
4
 1 0.334242 0.334242 0.98891
4
 1 0.340572 0.340572 0.983208
4
 1 0.338271 0.338271 0.979625
4
 1 0.339631 0.339631 0.975727
4
 1 0.341661 0.341661 0.970918
4
 1 0.342725 0.342725 0.977867
4
 1 0.347094 0.347094 0.951007
4
 1 0.354135 0.354135 0.946001
4
 1 0.348962 0.348962 0.947914
4
 1 0.351407 0.351407 0.947223
4
 1 0.349079 0.349079 0.952878
4
 1 0.34652 0.34652 0.953841
4
 1 0.339458 0.339458 0.949991
4
 1 0.343033 0.343033 0.950365
4
 1 0.344879 0.344879 0.947275
4
 1 0.337728 0.337728 0.954804
4
 1 0.334647 0.334647 0.952073
4
 1 0.328336 0.328336 0.958509
4
 1 0.330771 0.330771 0.957756
4
 1 0.335263 0.335263 0.955984
4
 1 0.333078 0.333078 0.956843
4
 1 0.345968 0.345968 0.948819
4
 1 0.343547 0.343547 0.954752
4
 1 0.340761 0.340761 0.956039
4
 1 0.338794 0.338794 0.95636
4
 1 0.355459 0.355459 0.943137
4
 1 0.350267 0.350267 0.945044
4
 1 0.332053 0.332053 0.989576
4
 1 0.335286 0.335286 0.981717
4
 1 0.328189 0.328189 0.998003
4
 0.993095 0.322152 0.322152 1
4
 1 0.338646 0.338646 0.972991
4
 0.94294 0.270251 0.270251 1
4
 0.944052 0.272448 0.272448 1
4
 0.947397 0.274988 0.274988 1
4
 0.945432 0.270299 0.270299 1
4
 0.951556 0.275791 0.275791 1
4
 0.950222 0.273515 0.273515 1
4
 0.950221 0.276265 0.276265 1
4
 0.940349 0.269952 0.269952 1
4
 0.938398 0.265792 0.265792 1
4
 0.988098 0.282352 0.282352 1
4
 1 0.290873 0.290873 0.999228
4
 0.988875 0.281367 0.281367 1
4
 0.998752 0.288182 0.288182 1
4
 0.993662 0.284661 0.284661 1
4
 0.995057 0.288469 0.288469 1
4
 0.975802 0.273922 0.273922 1
4
 0.967727 0.267037 0.267037 1
4
 0.972138 0.269985 0.269985 1
4
 0.970174 0.271322 0.271322 1
4
 0.982731 0.277199 0.277199 1
4
 0.978271 0.274172 0.274172 1
4
 0.976295 0.275529 0.275529 1
4
 0.982454 0.279802 0.279802 1
4
 1 0.29117 0.29117 0.994749
4
 1 0.295216 0.295216 0.992183
4
 1 0.297355 0.297355 0.987348
4
 1 0.297239 0.297239 0.98469
4
 1 0.29339 0.29339 0.989623
4
 0.988482 0.297305 0.297305 1
4
 0.997011 0.303142 0.303142 1
4
 0.994048 0.303254 0.303254 1
4
 0.980192 0.291501 0.291501 1
4
 0.985821 0.29761 0.29761 1
4
 0.989926 0.300419 0.300419 1
4
 0.981403 0.294497 0.294497 1
4
 1 0.307862 0.307862 0.993971
4
 1 0.311827 0.311827 0.984528
4
 1 0.314161 0.314161 0.984197
4
 1 0.31076 0.31076 0.992466
4
 1 0.312264 0.312264 0.988406
4
 1 0.308641 0.308641 0.997046
4
 0.998468 0.306317 0.306317 1
4
 0.977224 0.291473 0.291473 1
4
 0.971643 0.286443 0.286443 1
4
 0.970607 0.284397 0.284397 1
4
 0.930323 0.242932 0.242932 1
4
 0.926361 0.238839 0.238839 1
4
 0.932363 0.242476 0.242476 1
4
 0.929174 0.24046 0.24046 1
4
 0.936665 0.246909 0.246909 1
4
 0.935824 0.244671 0.244671 1
4
 0.969634 0.253907 0.253907 1
4
 0.981852 0.261722 0.261722 1
4
 0.977561 0.260525 0.260525 1
4
 0.972797 0.257391 0.257391 1
4
 0.957085 0.246117 0.246117 1
4
 0.962095 0.250644 0.250644 1
4
 0.966753 0.253578 0.253578 1
4
 0.943637 0.23794 0.23794 1
4
 0.955581 0.246607 0.246607 1
4
 0.988546 0.26734 0.26734 1
4
 0.929752 0.229901 0.229901 1
4
 0.943098 0.27472 0.27472 1
4
 0.94644 0.277281 0.277281 1
4
 0.947077 0.279764 0.279764 1
4
 0.944794 0.274684 0.274684 1
4
 0.950968 0.278533 0.278533 1
4
 0.953856 0.2823 0.2823 1
4
 0.948781 0.279728 0.279728 1
4
 0.940878 0.265838 0.265838 1
4
 0.93803 0.262729 0.262729 1
4
 0.941354 0.264737 0.264737 1
4
 0.946336 0.267939 0.267939 1
4
 0.948996 0.271058 0.271058 1
4
 0.943471 0.264805 0.264805 1
4
 0.928393 0.238391 0.238391 1
4
 0.935037 0.242566 0.242566 1
4
 1 0.310552 0.310552 0.973641
4
 1 0.312684 0.312684 0.977641
4
 1 0.309788 0.309788 0.979564
4
 1 0.308212 0.308212 0.978904
4
 1 0.314918 0.314918 0.972222
4
 1 0.313198 0.313198 0.971839
4
 1 0.307097 0.307097 0.976926
4
 1 0.312065 0.312065 0.969876
4
 1 0.307526 0.307526 0.972274
4
 1 0.310786 0.310786 0.981602
4
 1 0.315933 0.315933 0.974244
4
 1 0.316038 0.316038 0.979345
4
 1 0.317319 0.317319 0.975668
4
 1 0.306342 0.306342 0.982869
4
 1 0.300826 0.300826 0.986906
4
 1 0.303005 0.303005 0.982096
4
 1 0.316453 0.316453 0.968462
4
 1 0.319586 0.319586 0.970259
4
 1 0.321275 0.321275 0.966453
4
 1 0.319693 0.319693 0.97534
4
 1 0.316481 0.316481 0.983203
4
 1 0.31968 0.31968 0.980722
4
 1 0.32157 0.32157 0.97545
4
 1 0.322685 0.322685 0.967865
4
 1 0.325078 0.325078 0.967105
4
 1 0.322873 0.322873 0.971787
4
 1 0.326796 0.326796 0.963311
4
 0.954073 0.268579 0.268579 1
4
 0.951826 0.268261 0.268261 1
4
 0.951986 0.269982 0.269982 1
4
 0.954662 0.273125 0.273125 1
4
 0.960361 0.276127 0.276127 1
4
 0.959822 0.274389 0.274389 1
4
 0.958799 0.272429 0.272429 1
4
 0.948892 0.262362 0.262362 1
4
 0.950384 0.264915 0.264915 1
4
 0.951506 0.262652 0.262652 1
4
 0.956864 0.267462 0.267462 1
4
 0.957347 0.269031 0.269031 1
4
 0.946656 0.262051 0.262051 1
4
 0.947774 0.259813 0.259813 1
4
 0.943897 0.257075 0.257075 1
4
 0.948305 0.266298 0.266298 1
4
 0.95113 0.271127 0.271127 1
4
 0.943951 0.2521 0.2521 1
4
 0.939352 0.246999 0.246999 1
4
 0.942998 0.249583 0.249583 1
4
 0.94141 0.251938 0.251938 1
4
 0.946765 0.252427 0.252427 1
4
 0.949053 0.257524 0.257524 1
4
 0.945171 0.25481 0.25481 1
4
 0.942152 0.24732 0.24732 1
4
 0.946498 0.257359 0.257359 1
4
 0.955737 0.264863 0.264863 1
4
 0.954182 0.262627 0.262627 1
4
 1 0.28531 0.28531 0.983914
4
 1 0.281384 0.281384 0.988954
4
 1 0.287565 0.287565 0.986459
4
 1 0.289303 0.289303 0.982038
4
 1 0.283133 0.283133 0.988565
4
 1 0.28492 0.28492 0.988843
4
 1 0.290147 0.290147 0.979174
4
 1 0.289789 0.289789 0.984965
4
 1 0.285399 0.285399 0.991791
4
 1 0.285178 0.285178 0.995082
4
 1 0.286688 0.286688 0.994133
4
 1 0.290641 0.290641 0.987957
4
 1 0.292397 0.292397 0.983529
4
 1 0.294163 0.294163 0.97912
4
 1 0.29239 0.29239 0.977691
4
 1 0.281 0.281 0.993909
4
 1 0.27811 0.27811 0.997374
4
 0.99825 0.279425 0.279425 1
4
 1 0.282555 0.282555 0.997488
4
 1 0.279866 0.279866 0.997655
4
 0.998811 0.278861 0.278861 1
4
 0.988265 0.279465 0.279465 1
4
 0.979041 0.273216 0.273216 1
4
 0.986934 0.276826 0.276826 1
4
 0.982676 0.273856 0.273856 1
4
 0.998136 0.286234 0.286234 1
4
 1 0.28708 0.28708 0.997825
4
 1 0.291038 0.291038 0.991625
4
 0.997072 0.284191 0.284191 1
4
 0.991712 0.280066 0.280066 1
4
 0.970175 0.267281 0.267281 1
4
 0.969359 0.264981 0.264981 1
4
 0.964906 0.261966 0.261966 1
4
 0.973778 0.267907 0.267907 1
4
 0.978217 0.270865 0.270865 1
4
 0.925428 0.228699 0.228699 1
4
 0.921746 0.226499 0.226499 1
4
 0.924337 0.229136 0.229136 1
4
 1 0.313055 0.313055 0.991463
4
 0.999982 0.30967 0.30967 1
4
 1 0.313611 0.313611 0.995089
4
 0.991372 0.303566 0.303566 1
4
 0.982836 0.297582 0.297582 1
4
 0.984714 0.300815 0.300815 1
4
 0.990537 0.304995 0.304995 1
4
 1 0.31775 0.31775 0.984916
4
 1 0.311728 0.311728 0.999569
4
 0.994661 0.307873 0.307873 1
4
 0.972843 0.289387 0.289387 1
4
 0.973389 0.291221 0.291221 1
4
 0.9803 0.297668 0.297668 1
4
 0.973333 0.298955 0.298955 1
4
 0.969895 0.298175 0.298175 1
4
 0.981069 0.306176 0.306176 1
4
 0.971641 0.294677 0.294677 1
4
 0.969734 0.290405 0.290405 1
4
 0.966038 0.288975 0.288975 1
4
 0.965333 0.290122 0.290122 1
4
 0.976619 0.296834 0.296834 1
4
 0.968753 0.295771 0.295771 1
4
 0.965874 0.29196 0.29196 1
4
 0.977167 0.298715 0.298715 1
4
 0.967831 0.286195 0.286195 1
4
 0.961871 0.281617 0.281617 1
4
 0.966257 0.282362 0.282362 1
4
 0.962411 0.283401 0.283401 1
4
 0.964683 0.28659 0.28659 1
4
 0.975249 0.294384 0.294384 1
4
 0.955144 0.276566 0.276566 1
4
 0.955143 0.279346 0.279346 1
4
 0.958743 0.282005 0.282005 1
4
 0.960846 0.279606 0.279606 1
4
 0.959498 0.277298 0.277298 1
4
 0.957398 0.28249 0.28249 1
4
 0.956699 0.283611 0.283611 1
4
 0.960305 0.28631 0.28631 1
4
 0.961706 0.292705 0.292705 1
4
 0.962463 0.291198 0.291198 1
4
 0.964789 0.296583 0.296583 1
4
 0.958849 0.288934 0.288934 1
4
 0.953748 0.286301 0.286301 1
4
 0.961166 0.294277 0.294277 1
4
 0.954498 0.284827 0.284827 1
4
 1 0.294231 0.294231 0.997883
4
 1 0.299071 0.299071 0.986794
4
 0.989374 0.285863 0.285863 1
4
 0.976788 0.277146 0.277146 1
4
 0.96588 0.271309 0.271309 1
4
 0.964308 0.269018 0.269018 1
4
 1 0.344346 0.344346 0.961909
4
 1 0.345511 0.345511 0.95663
4
 1 0.338948 0.338948 0.96776
4
 1 0.340095 0.340095 0.962449
4
 1 0.334785 0.334785 0.968738
4
 1 0.337337 0.337337 0.963746
4
 1 0.341822 0.341822 0.962882
4
 1 0.340197 0.340197 0.958888
4
 1 0.334885 0.334885 0.965154
4
 1 0.329902 0.329902 0.976493
4
 1 0.330434 0.330434 0.970479
4
 1 0.335491 0.335491 0.960504
4
 0.987981 0.305083 0.305083 1
4
 1 0.318314 0.318314 0.988518
4
 1 0.322859 0.322859 0.977149
4
 1 0.324722 0.324722 0.976601
4
 0.999588 0.31333 0.31333 1
4
 0.971104 0.261001 0.261001 1
4
 0.96887 0.261249 0.261249 1
4
 0.964419 0.258276 0.258276 1
4
 0.962689 0.254038 0.254038 1
4
 0.967349 0.257012 0.257012 1
4
 0.984058 0.269764 0.269764 1
4
 0.975202 0.265351 0.265351 1
4
 0.979647 0.268281 0.268281 1
4
 0.978439 0.264226 0.264226 1
4
 0.97367 0.261047 0.261047 1
4
 0.994948 0.278285 0.278285 1
4
 0.990544 0.275962 0.275962 1
4
 0.98627 0.273001 0.273001 1
4
 0.985054 0.268874 0.268874 1
4
 0.991268 0.273956 0.273956 1
4
 1 0.294679 0.294679 0.968403
4
 1 0.291326 0.291326 0.969926
4
 1 0.293121 0.293121 0.971998
4
 1 0.284402 0.284402 0.97358
4
 1 0.28801 0.28801 0.971451
4
 1 0.298305 0.298305 0.966556
4
 1 0.294803 0.294803 0.971235
4
 1 0.296728 0.296728 0.970145
4
 1 0.324158 0.324158 0.990353
4
 0.994883 0.316257 0.316257 1
4
 1 0.283832 0.283832 0.999843
4
 0.99478 0.279756 0.279756 1
4
 0.99573 0.281506 0.281506 1
4
 1 0.289269 0.289269 0.992683
4
 0.986104 0.274444 0.274444 1
4
 0.977394 0.268535 0.268535 1
4
 0.968489 0.26258 0.26258 1
4
 0.999303 0.334718 0.334718 1
4
 1 0.340107 0.340107 0.988134
4
 0.984225 0.266117 0.266117 1
4
 0.974655 0.260187 0.260187 1
4
 0.985607 0.268332 0.268332 1
4
 0.993944 0.272764 0.272764 1
4
 0.99534 0.275034 0.275034 1
4
 0.965233 0.254083 0.254083 1
4
 0.990434 0.271147 0.271147 1
4
 1 0.303429 0.303429 0.97742
4
 1 0.303311 0.303311 0.974788
4
 1 0.30112 0.30112 0.979342
4
 1 0.297105 0.297105 0.981599
4
 1 0.2989 0.2989 0.977199
4
 1 0.295029 0.295029 0.982094
4
 1 0.295022 0.295022 0.976266
4
 0.959555 0.267436 0.267436 1
4
 0.961604 0.271296 0.271296 1
4
 0.964685 0.278581 0.278581 1
4
 0.963116 0.274851 0.274851 1
4
 1 0.33138 0.33138 0.961691
4
 1 0.331031 0.331031 0.965804
4
 1 0.326986 0.326986 0.967214
4
 1 0.328874 0.328874 0.966672
4
 1 0.326642 0.326642 0.971351
1
 1

